; SWAP1 SWAP2 POP PUSH cw_1 SWAP1 => PUSH cw_1 SWAP2 SWAP3 POP
(set-option :produce-proofs true)
; 
(set-info :status unknown)
(declare-fun storage_t ((_ BitVec 256) (_ BitVec 256) (_ BitVec 256) (_ BitVec 256) Int (_ BitVec 256)) (_ BitVec 256))
(declare-fun w_1 () (_ BitVec 256))
(declare-fun storage_s ((_ BitVec 256) (_ BitVec 256) (_ BitVec 256) (_ BitVec 256) Int (_ BitVec 256)) (_ BitVec 256))
(declare-fun exc_halt_t (Int) Bool)
(declare-fun exc_halt_s (Int) Bool)
(declare-fun sc_t (Int) (_ BitVec 6))
(declare-fun stack_t ((_ BitVec 256) (_ BitVec 256) (_ BitVec 256) (_ BitVec 256) Int (_ BitVec 6)) (_ BitVec 256))
(declare-fun stack_s ((_ BitVec 256) (_ BitVec 256) (_ BitVec 256) (_ BitVec 256) Int (_ BitVec 6)) (_ BitVec 256))
(declare-fun sc_s (Int) (_ BitVec 6))
(declare-fun used_gas_t ((_ BitVec 256) (_ BitVec 256) (_ BitVec 256) (_ BitVec 256) Int) Int)
(declare-fun used_gas_s ((_ BitVec 256) (_ BitVec 256) (_ BitVec 256) (_ BitVec 256) Int) Int)
(assert
 (exists ((x_0 (_ BitVec 256)) (x_1 (_ BitVec 256)) (x_2 (_ BitVec 256)) )(let (($x343 (forall ((w (_ BitVec 256)) )(let ((?x1130 (storage_t x_0 x_1 x_2 w_1 4 w)))
 (let ((?x3525 (storage_s x_0 x_1 x_2 w_1 5 w)))
 (= ?x3525 ?x1130))))
 ))
 (let (($x7854 (exc_halt_t 4)))
 (let (($x11317 (exc_halt_s 5)))
 (let (($x4320 (= $x11317 $x7854)))
 (let (($x1520 (forall ((n (_ BitVec 6)) )(let ((?x4818 (sc_t 4)))
 (let (($x6423 (bvsle ?x4818 n)))
 (let ((?x11516 (stack_t x_0 x_1 x_2 w_1 4 n)))
 (let ((?x8526 (stack_s x_0 x_1 x_2 w_1 5 n)))
 (let (($x5304 (= ?x8526 ?x11516)))
 (or $x5304 $x6423)))))))
 ))
 (let ((?x4818 (sc_t 4)))
 (let ((?x4319 (sc_s 5)))
 (let (($x3242 (= ?x4319 ?x4818)))
 (let ((?x6224 (used_gas_t x_0 x_1 x_2 w_1 0)))
 (let ((?x8071 (used_gas_s x_0 x_1 x_2 w_1 0)))
 (let (($x4529 (= ?x8071 ?x6224)))
 (let (($x894 (forall ((w (_ BitVec 256)) )(let ((?x8935 (storage_t x_0 x_1 x_2 w_1 0 w)))
 (let ((?x1156 (storage_s x_0 x_1 x_2 w_1 0 w)))
 (= ?x1156 ?x8935))))
 ))
 (let (($x56 (exc_halt_t 0)))
 (let (($x57 (exc_halt_s 0)))
 (let (($x58 (= $x57 $x56)))
 (let (($x3785 (forall ((n (_ BitVec 6)) )(let ((?x2729 (stack_t x_0 x_1 x_2 w_1 0 n)))
 (let ((?x1257 (stack_s x_0 x_1 x_2 w_1 0 n)))
 (let (($x7752 (= ?x1257 ?x2729)))
 (let ((?x63 (sc_t 0)))
 (let (($x4230 (bvsle ?x63 n)))
 (or $x4230 $x7752)))))))
 ))
 (let ((?x63 (sc_t 0)))
 (let ((?x72 (sc_s 0)))
 (let (($x73 (= ?x72 ?x63)))
 (let (($x10183 (= $x7854 (or (exc_halt_t 3) (not (bvsle (_ bv0 6) (bvadd (_ bv63 6) (sc_t 3))))))))
 (let (($x6059 (forall ((w (_ BitVec 256)) )(let ((?x8087 (storage_t x_0 x_1 x_2 w_1 3 w)))
 (let ((?x1130 (storage_t x_0 x_1 x_2 w_1 4 w)))
 (= ?x1130 ?x8087))))
 ))
 (let (($x3121 (forall ((n (_ BitVec 6)) )(let ((?x10926 (sc_t 3)))
 (let ((?x5892 (bvadd (_ bv63 6) ?x10926)))
 (let (($x4478 (bvsle ?x5892 n)))
 (let ((?x11610 (stack_t x_0 x_1 x_2 w_1 3 n)))
 (let ((?x11516 (stack_t x_0 x_1 x_2 w_1 4 n)))
 (or (= ?x11516 ?x11610) $x4478)))))))
 ))
 (let ((?x10926 (sc_t 3)))
 (let ((?x5892 (bvadd (_ bv63 6) ?x10926)))
 (let (($x451 (= ?x4818 ?x5892)))
 (let (($x2502 (= (used_gas_t x_0 x_1 x_2 w_1 4) (+ 2 (used_gas_t x_0 x_1 x_2 w_1 3)))))
 (let (($x2670 (exc_halt_t 3)))
 (let (($x9384 (= $x2670 (or (exc_halt_t 2) (not (bvsle (_ bv0 6) (bvadd (_ bv60 6) (sc_t 2))))))))
 (let (($x1069 (forall ((w (_ BitVec 256)) )(let ((?x1412 (storage_t x_0 x_1 x_2 w_1 2 w)))
 (let ((?x8087 (storage_t x_0 x_1 x_2 w_1 3 w)))
 (= ?x8087 ?x1412))))
 ))
 (let (($x9088 (forall ((n (_ BitVec 6)) )(let ((?x8527 (stack_t x_0 x_1 x_2 w_1 2 n)))
 (let ((?x11610 (stack_t x_0 x_1 x_2 w_1 3 n)))
 (let ((?x2714 (sc_t 2)))
 (let ((?x1060 (bvadd (_ bv60 6) ?x2714)))
 (let (($x3774 (bvsle ?x1060 n)))
 (or $x3774 (= ?x11610 ?x8527))))))))
 ))
 (let ((?x2714 (sc_t 2)))
 (let (($x6910 (= ?x10926 ?x2714)))
 (let ((?x1859 (used_gas_t x_0 x_1 x_2 w_1 3)))
 (let ((?x3211 (bvadd (_ bv62 6) ?x2714)))
 (let ((?x5651 (stack_t x_0 x_1 x_2 w_1 2 ?x3211)))
 (let ((?x715 (bvadd (_ bv61 6) ?x2714)))
 (let ((?x10122 (stack_t x_0 x_1 x_2 w_1 2 ?x715)))
 (let ((?x4376 (bvadd (_ bv63 6) ?x2714)))
 (let ((?x10514 (stack_t x_0 x_1 x_2 w_1 2 ?x4376)))
 (let (($x9798 (= (stack_t x_0 x_1 x_2 w_1 3 ?x5892) (stack_t x_0 x_1 x_2 w_1 2 (bvadd (_ bv60 6) ?x2714)))))
 (let (($x2163 (exc_halt_t 2)))
 (let (($x8581 (= $x2163 (or (exc_halt_t 1) (not (bvsle (_ bv0 6) (bvadd (_ bv61 6) (sc_t 1))))))))
 (let (($x10450 (forall ((w (_ BitVec 256)) )(let ((?x753 (storage_t x_0 x_1 x_2 w_1 1 w)))
 (let ((?x1412 (storage_t x_0 x_1 x_2 w_1 2 w)))
 (= ?x1412 ?x753))))
 ))
 (let (($x4459 (forall ((n (_ BitVec 6)) )(let ((?x7154 (sc_t 1)))
 (let ((?x5931 (bvadd (_ bv61 6) ?x7154)))
 (let (($x7161 (bvsle ?x5931 n)))
 (let ((?x5493 (stack_t x_0 x_1 x_2 w_1 1 n)))
 (let ((?x8527 (stack_t x_0 x_1 x_2 w_1 2 n)))
 (or (= ?x8527 ?x5493) $x7161)))))))
 ))
 (let ((?x7154 (sc_t 1)))
 (let (($x3683 (= ?x2714 ?x7154)))
 (let ((?x9793 (used_gas_t x_0 x_1 x_2 w_1 2)))
 (let (($x8377 (exc_halt_t 1)))
 (let (($x3390 (= $x8377 (or $x56 (not (= ((_ extract 6 6) (bvadd (_ bv1 7) (concat (_ bv0 1) ?x63))) (_ bv0 1)))))))
 (let (($x9750 (forall ((w (_ BitVec 256)) )(let ((?x8935 (storage_t x_0 x_1 x_2 w_1 0 w)))
 (let ((?x753 (storage_t x_0 x_1 x_2 w_1 1 w)))
 (= ?x753 ?x8935))))
 ))
 (let (($x1661 (forall ((n (_ BitVec 6)) )(let ((?x2729 (stack_t x_0 x_1 x_2 w_1 0 n)))
 (let ((?x5493 (stack_t x_0 x_1 x_2 w_1 1 n)))
 (let ((?x63 (sc_t 0)))
 (let (($x4230 (bvsle ?x63 n)))
 (or $x4230 (= ?x5493 ?x2729)))))))
 ))
 (let (($x3285 (= ?x7154 (bvadd (_ bv1 6) ?x63))))
 (let (($x9072 (= $x11317 (or (exc_halt_s 4) (not (bvsle (_ bv0 6) (bvadd (_ bv62 6) (sc_s 4))))))))
 (let (($x1755 (forall ((w (_ BitVec 256)) )(let ((?x9174 (storage_s x_0 x_1 x_2 w_1 4 w)))
 (let ((?x3525 (storage_s x_0 x_1 x_2 w_1 5 w)))
 (= ?x3525 ?x9174))))
 ))
 (let (($x6165 (forall ((n (_ BitVec 6)) )(let ((?x4305 (sc_s 4)))
 (let ((?x8930 (bvadd (_ bv62 6) ?x4305)))
 (let (($x3896 (bvsle ?x8930 n)))
 (let ((?x10542 (stack_s x_0 x_1 x_2 w_1 4 n)))
 (let ((?x8526 (stack_s x_0 x_1 x_2 w_1 5 n)))
 (or (= ?x8526 ?x10542) $x3896)))))))
 ))
 (let ((?x4305 (sc_s 4)))
 (let (($x780 (= ?x4319 ?x4305)))
 (let (($x5041 (= (used_gas_s x_0 x_1 x_2 w_1 5) (+ 3 (used_gas_s x_0 x_1 x_2 w_1 4)))))
 (let (($x9791 (= (stack_s x_0 x_1 x_2 w_1 5 (bvadd (_ bv62 6) ?x4319)) (stack_s x_0 x_1 x_2 w_1 4 (bvadd (_ bv63 6) ?x4305)))))
 (let (($x406 (= (stack_s x_0 x_1 x_2 w_1 5 (bvadd (_ bv63 6) ?x4319)) (stack_s x_0 x_1 x_2 w_1 4 (bvadd (_ bv62 6) ?x4305)))))
 (let (($x292 (exc_halt_s 3)))
 (let (($x8537 (or $x292 (not (= ((_ extract 6 6) (bvadd (_ bv1 7) (concat (_ bv0 1) (sc_s 3)))) (_ bv0 1))))))
 (let (($x7172 (exc_halt_s 4)))
 (let (($x125 (forall ((w (_ BitVec 256)) )(let ((?x9317 (storage_s x_0 x_1 x_2 w_1 3 w)))
 (let ((?x9174 (storage_s x_0 x_1 x_2 w_1 4 w)))
 (= ?x9174 ?x9317))))
 ))
 (let (($x11391 (forall ((n (_ BitVec 6)) )(let ((?x2790 (stack_s x_0 x_1 x_2 w_1 3 n)))
 (let ((?x10542 (stack_s x_0 x_1 x_2 w_1 4 n)))
 (or (bvsle (sc_s 3) n) (= ?x10542 ?x2790)))))
 ))
 (let ((?x1390 (used_gas_s x_0 x_1 x_2 w_1 4)))
 (let (($x5356 (= $x292 (or (exc_halt_s 2) (not (bvsle (_ bv0 6) (bvadd (_ bv63 6) (sc_s 2))))))))
 (let (($x1463 (forall ((w (_ BitVec 256)) )(let ((?x3668 (storage_s x_0 x_1 x_2 w_1 2 w)))
 (let ((?x9317 (storage_s x_0 x_1 x_2 w_1 3 w)))
 (= ?x9317 ?x3668))))
 ))
 (let (($x9180 (forall ((n (_ BitVec 6)) )(let ((?x218 (sc_s 2)))
 (let ((?x4853 (bvadd (_ bv63 6) ?x218)))
 (let (($x10547 (bvsle ?x4853 n)))
 (let ((?x1279 (stack_s x_0 x_1 x_2 w_1 2 n)))
 (let ((?x2790 (stack_s x_0 x_1 x_2 w_1 3 n)))
 (or (= ?x2790 ?x1279) $x10547)))))))
 ))
 (let ((?x218 (sc_s 2)))
 (let ((?x4853 (bvadd (_ bv63 6) ?x218)))
 (let ((?x275 (sc_s 3)))
 (let (($x3484 (= ?x275 ?x4853)))
 (let ((?x4571 (used_gas_s x_0 x_1 x_2 w_1 3)))
 (let (($x247 (exc_halt_s 2)))
 (let (($x4868 (= $x247 (or (exc_halt_s 1) (not (bvsle (_ bv0 6) (bvadd (_ bv61 6) (sc_s 1))))))))
 (let (($x2481 (forall ((w (_ BitVec 256)) )(let ((?x10192 (storage_s x_0 x_1 x_2 w_1 1 w)))
 (let ((?x3668 (storage_s x_0 x_1 x_2 w_1 2 w)))
 (= ?x3668 ?x10192))))
 ))
 (let (($x6826 (forall ((n (_ BitVec 6)) )(let ((?x154 (sc_s 1)))
 (let ((?x2426 (bvadd (_ bv61 6) ?x154)))
 (let (($x8608 (bvsle ?x2426 n)))
 (let ((?x7425 (stack_s x_0 x_1 x_2 w_1 1 n)))
 (let ((?x1279 (stack_s x_0 x_1 x_2 w_1 2 n)))
 (or (= ?x1279 ?x7425) $x8608)))))))
 ))
 (let ((?x154 (sc_s 1)))
 (let (($x8545 (= ?x218 ?x154)))
 (let ((?x67 (used_gas_s x_0 x_1 x_2 w_1 2)))
 (let ((?x9486 (bvadd (_ bv62 6) ?x154)))
 (let ((?x2652 (stack_s x_0 x_1 x_2 w_1 1 ?x9486)))
 (let ((?x4263 (bvadd (_ bv63 6) ?x154)))
 (let ((?x9868 (stack_s x_0 x_1 x_2 w_1 1 ?x4263)))
 (let (($x2048 (= (stack_s x_0 x_1 x_2 w_1 2 ?x4853) (stack_s x_0 x_1 x_2 w_1 1 (bvadd (_ bv61 6) ?x154)))))
 (let (($x189 (exc_halt_s 1)))
 (let (($x11285 (= $x189 (or $x57 (not (bvsle (_ bv0 6) (bvadd (_ bv62 6) ?x72)))))))
 (let (($x10623 (forall ((w (_ BitVec 256)) )(let ((?x1156 (storage_s x_0 x_1 x_2 w_1 0 w)))
 (let ((?x10192 (storage_s x_0 x_1 x_2 w_1 1 w)))
 (= ?x10192 ?x1156))))
 ))
 (let (($x2686 (forall ((n (_ BitVec 6)) )(let ((?x1257 (stack_s x_0 x_1 x_2 w_1 0 n)))
 (let ((?x7425 (stack_s x_0 x_1 x_2 w_1 1 n)))
 (let ((?x72 (sc_s 0)))
 (let ((?x6828 (bvadd (_ bv62 6) ?x72)))
 (let (($x7964 (bvsle ?x6828 n)))
 (or $x7964 (= ?x7425 ?x1257))))))))
 ))
 (let (($x9070 (= ?x154 ?x72)))
 (let (($x1420 (forall ((w (_ BitVec 256)) )(let ((?x1156 (storage_s x_0 x_1 x_2 w_1 0 w)))
 (= ?x1156 (_ bv0 256))))
 ))
 (let (($x3621 (= ?x8071 0)))
 (let (($x5536 (not $x57)))
 (let (($x6732 (= (stack_s x_0 x_1 x_2 w_1 0 (_ bv2 6)) x_2)))
 (let (($x7551 (= (stack_s x_0 x_1 x_2 w_1 0 (_ bv1 6)) x_1)))
 (let (($x5910 (= (stack_s x_0 x_1 x_2 w_1 0 (_ bv0 6)) x_0)))
 (let (($x4824 (= ?x72 (_ bv3 6))))
 (and $x4824 $x5910 $x7551 $x6732 $x5536 $x3621 $x1420 (= ?x9868 (stack_s x_0 x_1 x_2 w_1 0 (bvadd (_ bv62 6) ?x72))) (= ?x2652 (stack_s x_0 x_1 x_2 w_1 0 (bvadd (_ bv63 6) ?x72))) (= (used_gas_s x_0 x_1 x_2 w_1 1) (+ 3 ?x8071)) $x9070 $x2686 $x10623 $x11285 $x2048 (= (stack_s x_0 x_1 x_2 w_1 2 (bvadd (_ bv61 6) ?x218)) ?x9868) (= (stack_s x_0 x_1 x_2 w_1 2 (bvadd (_ bv62 6) ?x218)) ?x2652) (= ?x67 (+ 3 (used_gas_s x_0 x_1 x_2 w_1 1))) $x8545 $x6826 $x2481 $x4868 (= ?x4571 (+ 2 ?x67)) $x3484 $x9180 $x1463 $x5356 (= (stack_s x_0 x_1 x_2 w_1 4 ?x275) w_1) (= ?x1390 (+ 3 ?x4571)) (= ?x4305 (bvadd (_ bv1 6) ?x275)) $x11391 $x125 (= $x7172 $x8537) $x406 $x9791 $x5041 $x780 $x6165 $x1755 $x9072 (= (stack_t x_0 x_1 x_2 w_1 1 ?x63) w_1) (= (used_gas_t x_0 x_1 x_2 w_1 1) (+ 3 ?x6224)) $x3285 $x1661 $x9750 $x3390 (= ?x10514 (stack_t x_0 x_1 x_2 w_1 1 (bvadd (_ bv61 6) ?x7154))) (= ?x10122 (stack_t x_0 x_1 x_2 w_1 1 (bvadd (_ bv63 6) ?x7154))) (= ?x5651 (stack_t x_0 x_1 x_2 w_1 1 (bvadd (_ bv62 6) ?x7154))) (= ?x9793 (+ 3 (used_gas_t x_0 x_1 x_2 w_1 1))) $x3683 $x4459 $x10450 $x8581 $x9798 (= (stack_t x_0 x_1 x_2 w_1 3 (bvadd (_ bv60 6) ?x10926)) ?x10514) (= (stack_t x_0 x_1 x_2 w_1 3 (bvadd (_ bv61 6) ?x10926)) ?x10122) (= (stack_t x_0 x_1 x_2 w_1 3 (bvadd (_ bv62 6) ?x10926)) ?x5651) (= ?x1859 (+ 3 ?x9793)) $x6910 $x9088 $x1069 $x9384 $x2502 $x451 $x3121 $x6059 $x10183 $x73 $x3785 $x58 $x894 $x4529 (not (and $x3242 $x1520 $x4320 $x343))))))))))))))))))))))))))))))))))))))))))))))))))))))))))))))))))))))))))))))))))))))))))))))))))))))
 )
(check-sat)
(get-proof)
